param n := 249;
param c := 1000;
param : V : p w :=
   0	 476	 466
   1	 271	 261
   2	 283	 273
   3	 507	 497
   4	 260	 250
   5	 263	 253
   6	 392	 382
   7	 318	 308
   8	 320	 310
   9	 434	 424
  10	 283	 273
  11	 313	 303
  12	 395	 385
  13	 293	 283
  14	 342	 332
  15	 435	 425
  16	 264	 254
  17	 331	 321
  18	 474	 464
  19	 263	 253
  20	 293	 283
  21	 453	 443
  22	 268	 258
  23	 309	 299
  24	 411	 401
  25	 286	 276
  26	 333	 323
  27	 498	 488
  28	 265	 255
  29	 267	 257
  30	 441	 431
  31	 260	 250
  32	 329	 319
  33	 470	 460
  34	 273	 263
  35	 287	 277
  36	 391	 381
  37	 312	 302
  38	 327	 317
  39	 407	 397
  40	 270	 260
  41	 353	 343
  42	 390	 380
  43	 299	 289
  44	 341	 331
  45	 395	 385
  46	 260	 250
  47	 375	 365
  48	 451	 441
  49	 273	 263
  50	 306	 296
  51	 502	 492
  52	 263	 253
  53	 265	 255
  54	 441	 431
  55	 270	 260
  56	 319	 309
  57	 497	 487
  58	 265	 255
  59	 268	 258
  60	 417	 407
  61	 269	 259
  62	 344	 334
  63	 490	 480
  64	 265	 255
  65	 275	 265
  66	 438	 428
  67	 289	 279
  68	 303	 293
  69	 397	 387
  70	 291	 281
  71	 342	 332
  72	 454	 444
  73	 261	 251
  74	 315	 305
  75	 499	 489
  76	 264	 254
  77	 267	 257
  78	 382	 372
  79	 261	 251
  80	 387	 377
  81	 462	 452
  82	 267	 257
  83	 301	 291
  84	 438	 428
  85	 281	 271
  86	 311	 301
  87	 432	 422
  88	 263	 253
  89	 335	 325
  90	 368	 358
  91	 270	 260
  92	 392	 382
  93	 507	 497
  94	 260	 250
  95	 263	 253
  96	 392	 382
  97	 316	 306
  98	 322	 312
  99	 369	 359
 100	 279	 269
 101	 382	 372
 102	 419	 409
 103	 303	 293
 104	 308	 298
 105	 501	 491
 106	 262	 252
 107	 267	 257
 108	 444	 434
 109	 281	 271
 110	 305	 295
 111	 379	 369
 112	 262	 252
 113	 389	 379
 114	 393	 383
 115	 298	 288
 116	 339	 329
 117	 403	 393
 118	 273	 263
 119	 354	 344
 120	 448	 438
 121	 269	 259
 122	 313	 303
 123	 461	 451
 124	 277	 267
 125	 292	 282
 126	 504	 494
 127	 262	 252
 128	 264	 254
 129	 401	 391
 130	 298	 288
 131	 331	 321
 132	 386	 376
 133	 274	 264
 134	 370	 360
 135	 509	 499
 136	 260	 250
 137	 261	 251
 138	 391	 381
 139	 265	 255
 140	 374	 364
 141	 363	 353
 142	 321	 311
 143	 346	 336
 144	 450	 440
 145	 279	 269
 146	 301	 291
 147	 467	 457
 148	 277	 267
 149	 286	 276
 150	 462	 452
 151	 280	 270
 152	 288	 278
 153	 414	 404
 154	 272	 262
 155	 344	 334
 156	 408	 398
 157	 303	 293
 158	 319	 309
 159	 370	 360
 160	 289	 279
 161	 371	 361
 162	 435	 425
 163	 294	 284
 164	 301	 291
 165	 501	 491
 166	 261	 251
 167	 268	 258
 168	 461	 451
 169	 282	 272
 170	 287	 277
 171	 456	 446
 172	 286	 276
 173	 288	 278
 174	 507	 497
 175	 260	 250
 176	 263	 253
 177	 447	 437
 178	 264	 254
 179	 319	 309
 180	 479	 469
 181	 264	 254
 182	 287	 277
 183	 447	 437
 184	 289	 279
 185	 294	 284
 186	 364	 354
 187	 321	 311
 188	 345	 335
 189	 435	 425
 190	 260	 250
 191	 335	 325
 192	 471	 461
 193	 268	 258
 194	 291	 281
 195	 426	 416
 196	 280	 270
 197	 324	 314
 198	 469	 459
 199	 268	 258
 200	 293	 283
 201	 410	 400
 202	 281	 271
 203	 339	 329
 204	 478	 468
 205	 260	 250
 206	 292	 282
 207	 380	 370
 208	 279	 269
 209	 371	 361
 210	 432	 422
 211	 266	 256
 212	 332	 322
 213	 417	 407
 214	 270	 260
 215	 343	 333
 216	 392	 382
 217	 260	 250
 218	 378	 368
 219	 459	 449
 220	 264	 254
 221	 307	 297
 222	 436	 426
 223	 268	 258
 224	 326	 316
 225	 474	 464
 226	 277	 267
 227	 279	 269
 228	 425	 415
 229	 264	 254
 230	 341	 331
 231	 402	 392
 232	 290	 280
 233	 338	 328
 234	 425	 415
 235	 294	 284
 236	 311	 301
 237	 442	 432
 238	 289	 279
 239	 299	 289
 240	 420	 410
 241	 277	 267
 242	 333	 323
 243	 395	 385
 244	 262	 252
 245	 373	 363
 246	 378	 368
 247	 302	 292
 248	 350	 340
;

set E :=
   0	  12
   0	  24
   0	  32
   0	  38
   0	  41
   0	  85
   0	 107
   0	 108
   0	 129
   0	 134
   0	 137
   0	 138
   0	 158
   0	 159
   0	 166
   0	 175
   0	 181
   0	 194
   0	 219
   0	 228
   0	 231
   0	 236
   1	   3
   1	  17
   1	  24
   1	  28
   1	  33
   1	  41
   1	  59
   1	  64
   1	  70
   1	 102
   1	 126
   1	 134
   1	 143
   1	 148
   1	 153
   1	 163
   1	 167
   1	 168
   1	 173
   1	 183
   1	 185
   1	 192
   1	 202
   1	 205
   1	 216
   1	 223
   1	 230
   2	  28
   2	  29
   2	  33
   2	  36
   2	  57
   2	  61
   2	  68
   2	  82
   2	 111
   2	 130
   2	 138
   2	 144
   2	 145
   2	 159
   2	 162
   2	 164
   2	 170
   2	 207
   2	 215
   2	 231
   2	 241
   2	 243
   3	   6
   3	  20
   3	  26
   3	  28
   3	  29
   3	  35
   3	  61
   3	  74
   3	  81
   3	  82
   3	  99
   3	 108
   3	 111
   3	 139
   3	 152
   3	 170
   3	 195
   3	 207
   3	 208
   3	 216
   3	 236
   3	 247
   4	  12
   4	  15
   4	  19
   4	  21
   4	  23
   4	  25
   4	  52
   4	  74
   4	  97
   4	 118
   4	 142
   4	 150
   4	 161
   4	 205
   4	 212
   5	   7
   5	  15
   5	  47
   5	  48
   5	  54
   5	  63
   5	  95
   5	  98
   5	 103
   5	 107
   5	 124
   5	 133
   5	 146
   5	 150
   5	 166
   5	 167
   5	 171
   5	 182
   5	 190
   5	 200
   5	 206
   5	 218
   5	 219
   5	 220
   5	 230
   5	 233
   6	   7
   6	   8
   6	  19
   6	  52
   6	  56
   6	  61
   6	  73
   6	  93
   6	  95
   6	 110
   6	 123
   6	 137
   6	 143
   6	 172
   6	 189
   6	 191
   6	 201
   6	 202
   6	 208
   6	 214
   6	 226
   6	 231
   6	 233
   6	 236
   7	  19
   7	  43
   7	  45
   7	  53
   7	  74
   7	  75
   7	  76
   7	  80
   7	  89
   7	  95
   7	  96
   7	 113
   7	 117
   7	 121
   7	 125
   7	 131
   7	 148
   7	 160
   7	 164
   7	 167
   7	 192
   7	 195
   7	 200
   7	 210
   7	 213
   7	 224
   7	 231
   7	 241
   7	 244
   8	  15
   8	  16
   8	  22
   8	  26
   8	  34
   8	  37
   8	  43
   8	  46
   8	  67
   8	  70
   8	  73
   8	  85
   8	  92
   8	  96
   8	 116
   8	 118
   8	 130
   8	 136
   8	 165
   8	 167
   8	 170
   8	 179
   8	 201
   8	 206
   8	 210
   8	 214
   8	 224
   8	 237
   8	 245
   9	  20
   9	  25
   9	  28
   9	  37
   9	  41
   9	  54
   9	  63
   9	  71
   9	  73
   9	  75
   9	  77
   9	  93
   9	 107
   9	 111
   9	 115
   9	 123
   9	 130
   9	 135
   9	 142
   9	 158
   9	 161
   9	 174
   9	 179
   9	 202
   9	 204
   9	 216
   9	 233
  10	  13
  10	  27
  10	  39
  10	  42
  10	  43
  10	  44
  10	  56
  10	  60
  10	  71
  10	  77
  10	  78
  10	  89
  10	 102
  10	 107
  10	 114
  10	 126
  10	 136
  10	 142
  10	 159
  10	 167
  10	 172
  10	 174
  10	 175
  10	 186
  10	 194
  10	 200
  10	 214
  11	  26
  11	  30
  11	  82
  11	  92
  11	  96
  11	  99
  11	 102
  11	 118
  11	 166
  11	 183
  11	 194
  11	 201
  11	 212
  11	 217
  11	 218
  11	 236
  11	 242
  12	  18
  12	  24
  12	  25
  12	  65
  12	  69
  12	  84
  12	  92
  12	 110
  12	 115
  12	 116
  12	 130
  12	 149
  12	 160
  12	 170
  12	 178
  12	 193
  12	 200
  12	 205
  12	 239
  12	 245
  13	  21
  13	  24
  13	  44
  13	  54
  13	  56
  13	  57
  13	  60
  13	  81
  13	  97
  13	 101
  13	 106
  13	 116
  13	 145
  13	 149
  13	 161
  13	 171
  13	 175
  13	 179
  13	 184
  13	 187
  13	 198
  13	 211
  13	 222
  13	 235
  14	  39
  14	  41
  14	  43
  14	  54
  14	  57
  14	  63
  14	  69
  14	  79
  14	  81
  14	  89
  14	 115
  14	 116
  14	 133
  14	 140
  14	 168
  14	 178
  14	 216
  14	 224
  14	 225
  14	 232
  14	 239
  14	 240
  15	  19
  15	  34
  15	  38
  15	  50
  15	  80
  15	  94
  15	  98
  15	  99
  15	 103
  15	 104
  15	 136
  15	 148
  15	 155
  15	 170
  15	 171
  15	 172
  15	 185
  15	 194
  15	 210
  15	 214
  15	 235
  15	 236
  15	 242
  16	  19
  16	  28
  16	  35
  16	  39
  16	  59
  16	  61
  16	  66
  16	  71
  16	  72
  16	  84
  16	  86
  16	 103
  16	 106
  16	 112
  16	 139
  16	 154
  16	 163
  16	 165
  16	 171
  16	 190
  16	 191
  16	 199
  16	 200
  16	 220
  16	 224
  16	 236
  16	 244
  17	  25
  17	  28
  17	  32
  17	 106
  17	 110
  17	 115
  17	 119
  17	 138
  17	 141
  17	 142
  17	 147
  17	 151
  17	 161
  17	 184
  17	 189
  17	 217
  18	  24
  18	  26
  18	  31
  18	  45
  18	  58
  18	  79
  18	 101
  18	 102
  18	 108
  18	 114
  18	 123
  18	 126
  18	 146
  18	 154
  18	 188
  18	 191
  18	 211
  18	 214
  18	 226
  18	 227
  18	 230
  18	 231
  19	  21
  19	  23
  19	  25
  19	  47
  19	  67
  19	  72
  19	  97
  19	 123
  19	 153
  19	 182
  19	 187
  19	 212
  19	 215
  19	 223
  19	 247
  20	  21
  20	  33
  20	  73
  20	  85
  20	  88
  20	  90
  20	  97
  20	  99
  20	 111
  20	 118
  20	 120
  20	 125
  20	 138
  20	 140
  20	 154
  20	 170
  20	 175
  20	 180
  20	 190
  20	 195
  20	 200
  20	 209
  20	 215
  20	 219
  20	 227
  21	  28
  21	  42
  21	  45
  21	  46
  21	  48
  21	  82
  21	 100
  21	 110
  21	 120
  21	 125
  21	 128
  21	 131
  21	 144
  21	 158
  21	 160
  21	 167
  21	 179
  21	 182
  21	 192
  21	 197
  21	 201
  21	 210
  21	 216
  21	 224
  21	 229
  21	 244
  22	  32
  22	  34
  22	  35
  22	  40
  22	  49
  22	  53
  22	  58
  22	  65
  22	 105
  22	 112
  22	 138
  22	 142
  22	 143
  22	 144
  22	 191
  22	 208
  22	 216
  22	 239
  22	 240
  22	 244
  23	  30
  23	  44
  23	  68
  23	  76
  23	  79
  23	  86
  23	 102
  23	 103
  23	 105
  23	 109
  23	 111
  23	 132
  23	 133
  23	 141
  23	 184
  23	 189
  23	 192
  23	 196
  23	 200
  23	 203
  23	 204
  23	 214
  23	 226
  23	 237
  23	 243
  23	 248
  24	  28
  24	  36
  24	  47
  24	  59
  24	  78
  24	  81
  24	  93
  24	  98
  24	 116
  24	 122
  24	 126
  24	 149
  24	 153
  24	 155
  24	 157
  24	 161
  24	 196
  24	 198
  24	 217
  25	  41
  25	  50
  25	  54
  25	  55
  25	  65
  25	  75
  25	  80
  25	 103
  25	 105
  25	 113
  25	 115
  25	 118
  25	 126
  25	 130
  25	 135
  25	 137
  25	 145
  25	 148
  25	 170
  25	 183
  25	 193
  25	 199
  25	 213
  25	 246
  26	  30
  26	  37
  26	  40
  26	  42
  26	  52
  26	  70
  26	  74
  26	  77
  26	  79
  26	  80
  26	  87
  26	  92
  26	  98
  26	 116
  26	 125
  26	 128
  26	 143
  26	 150
  26	 160
  26	 183
  26	 185
  26	 205
  26	 219
  26	 224
  27	  43
  27	  58
  27	  81
  27	  88
  27	  92
  27	 105
  27	 106
  27	 112
  27	 134
  27	 141
  27	 156
  27	 165
  27	 167
  27	 179
  27	 181
  27	 194
  27	 209
  27	 218
  27	 228
  27	 243
  28	  30
  28	  61
  28	  79
  28	  87
  28	  88
  28	 124
  28	 128
  28	 137
  28	 162
  28	 217
  28	 233
  28	 237
  28	 244
  28	 246
  29	  34
  29	  42
  29	  51
  29	  67
  29	  81
  29	 104
  29	 116
  29	 127
  29	 130
  29	 147
  29	 165
  29	 175
  29	 182
  29	 183
  29	 185
  29	 190
  29	 200
  29	 215
  29	 228
  30	  52
  30	  66
  30	  78
  30	  88
  30	 145
  30	 150
  30	 151
  30	 153
  30	 163
  30	 166
  30	 175
  30	 178
  30	 203
  30	 210
  30	 212
  30	 223
  30	 229
  30	 231
  30	 239
  31	  39
  31	  75
  31	  80
  31	  83
  31	  95
  31	 100
  31	 121
  31	 141
  31	 143
  31	 148
  31	 153
  31	 159
  31	 184
  31	 192
  31	 203
  31	 209
  31	 217
  31	 227
  31	 232
  31	 233
  31	 236
  32	  40
  32	  45
  32	  54
  32	  73
  32	  78
  32	  80
  32	  83
  32	  84
  32	  85
  32	  96
  32	 108
  32	 113
  32	 115
  32	 128
  32	 160
  32	 167
  32	 170
  32	 174
  32	 180
  32	 183
  32	 198
  32	 199
  32	 207
  32	 215
  32	 242
  33	  43
  33	  51
  33	  53
  33	  55
  33	  62
  33	  65
  33	  66
  33	  71
  33	  81
  33	  84
  33	  93
  33	  97
  33	 116
  33	 118
  33	 124
  33	 139
  33	 147
  33	 148
  33	 155
  33	 165
  33	 184
  33	 193
  33	 203
  33	 214
  33	 215
  33	 219
  33	 230
  33	 247
  34	  51
  34	  64
  34	  86
  34	  92
  34	  93
  34	 103
  34	 145
  34	 152
  34	 164
  34	 171
  34	 177
  34	 184
  34	 201
  34	 209
  34	 220
  34	 227
  34	 229
  34	 230
  34	 232
  34	 237
  35	  49
  35	  50
  35	  72
  35	 105
  35	 111
  35	 115
  35	 125
  35	 137
  35	 138
  35	 143
  35	 150
  35	 153
  35	 154
  35	 157
  35	 160
  35	 161
  35	 162
  35	 167
  35	 172
  35	 178
  35	 179
  35	 182
  35	 202
  35	 203
  35	 217
  35	 221
  35	 227
  35	 230
  35	 233
  35	 247
  36	  55
  36	  98
  36	 110
  36	 112
  36	 131
  36	 147
  36	 158
  36	 164
  36	 168
  36	 171
  36	 181
  36	 184
  36	 233
  36	 234
  36	 248
  37	  40
  37	  47
  37	  50
  37	  79
  37	  83
  37	  98
  37	 104
  37	 105
  37	 122
  37	 130
  37	 131
  37	 141
  37	 142
  37	 158
  37	 161
  37	 177
  37	 197
  37	 212
  37	 214
  37	 232
  37	 233
  38	  65
  38	  68
  38	  88
  38	  96
  38	 111
  38	 115
  38	 125
  38	 130
  38	 141
  38	 142
  38	 146
  38	 155
  38	 165
  38	 188
  38	 192
  38	 193
  38	 204
  38	 206
  38	 227
  38	 228
  38	 235
  39	  40
  39	  64
  39	 116
  39	 131
  39	 148
  39	 151
  39	 154
  39	 173
  39	 186
  39	 191
  39	 192
  39	 199
  39	 200
  39	 207
  39	 209
  39	 237
  40	  64
  40	  67
  40	  83
  40	 110
  40	 111
  40	 120
  40	 122
  40	 141
  40	 160
  40	 179
  40	 195
  40	 197
  40	 220
  40	 227
  40	 231
  40	 235
  40	 237
  40	 244
  41	  57
  41	  77
  41	  85
  41	  87
  41	  93
  41	 112
  41	 153
  41	 158
  41	 163
  41	 165
  41	 166
  41	 172
  41	 182
  41	 186
  41	 188
  41	 195
  41	 203
  41	 224
  41	 229
  41	 233
  41	 238
  41	 241
  42	  51
  42	  57
  42	  75
  42	  80
  42	  82
  42	 111
  42	 145
  42	 154
  42	 158
  42	 161
  42	 166
  42	 185
  42	 188
  42	 197
  42	 200
  42	 202
  42	 204
  42	 213
  42	 236
  43	  49
  43	  69
  43	  74
  43	  77
  43	  81
  43	  89
  43	  91
  43	 100
  43	 110
  43	 127
  43	 129
  43	 153
  43	 154
  43	 159
  43	 164
  43	 181
  43	 198
  43	 205
  43	 206
  43	 223
  43	 234
  44	  47
  44	  54
  44	  56
  44	  67
  44	  69
  44	  72
  44	  73
  44	  87
  44	  93
  44	  95
  44	 100
  44	 103
  44	 113
  44	 139
  44	 143
  44	 146
  44	 158
  44	 174
  44	 175
  44	 192
  44	 196
  44	 198
  44	 204
  44	 207
  44	 221
  44	 231
  44	 240
  44	 246
  45	  52
  45	  61
  45	  69
  45	  95
  45	 108
  45	 126
  45	 141
  45	 151
  45	 164
  45	 187
  45	 193
  45	 205
  45	 210
  45	 224
  45	 227
  45	 235
  45	 248
  46	  50
  46	  64
  46	  71
  46	  82
  46	 134
  46	 142
  46	 149
  46	 165
  46	 169
  46	 176
  46	 178
  46	 200
  46	 201
  46	 207
  46	 210
  46	 213
  46	 227
  46	 231
  46	 241
  46	 242
  46	 245
  47	  49
  47	  58
  47	  68
  47	  75
  47	 106
  47	 108
  47	 126
  47	 130
  47	 135
  47	 139
  47	 150
  47	 160
  47	 169
  47	 172
  47	 177
  47	 179
  47	 215
  47	 223
  47	 229
  47	 241
  47	 246
  48	  65
  48	  68
  48	  70
  48	  73
  48	  92
  48	  96
  48	  97
  48	 106
  48	 127
  48	 132
  48	 135
  48	 138
  48	 169
  48	 184
  48	 189
  48	 202
  48	 212
  48	 228
  48	 245
  49	  62
  49	  76
  49	  80
  49	  87
  49	 100
  49	 103
  49	 110
  49	 118
  49	 126
  49	 129
  49	 130
  49	 148
  49	 155
  49	 172
  49	 202
  49	 207
  49	 216
  49	 238
  49	 246
  50	  63
  50	  72
  50	  76
  50	  86
  50	 114
  50	 119
  50	 123
  50	 134
  50	 136
  50	 137
  50	 143
  50	 151
  50	 166
  50	 178
  50	 183
  50	 192
  50	 197
  50	 202
  50	 207
  51	  57
  51	  95
  51	 121
  51	 122
  51	 128
  51	 138
  51	 145
  51	 150
  51	 155
  51	 162
  51	 202
  51	 206
  51	 207
  51	 222
  51	 244
  52	  70
  52	  77
  52	  95
  52	  99
  52	 103
  52	 123
  52	 137
  52	 144
  52	 154
  52	 160
  52	 188
  52	 193
  52	 201
  52	 215
  52	 224
  52	 232
  53	  54
  53	  55
  53	  69
  53	  94
  53	  95
  53	  96
  53	 113
  53	 128
  53	 129
  53	 131
  53	 134
  53	 153
  53	 165
  53	 169
  53	 170
  53	 187
  53	 190
  53	 217
  53	 220
  54	  55
  54	  56
  54	  62
  54	  63
  54	  88
  54	 112
  54	 118
  54	 134
  54	 136
  54	 142
  54	 143
  54	 155
  54	 156
  54	 162
  54	 173
  54	 180
  54	 183
  54	 192
  54	 196
  54	 197
  54	 223
  54	 233
  55	  63
  55	 100
  55	 101
  55	 106
  55	 128
  55	 139
  55	 165
  55	 169
  55	 194
  55	 201
  55	 203
  55	 207
  55	 232
  55	 240
  55	 248
  56	  70
  56	  76
  56	  89
  56	  94
  56	  95
  56	  98
  56	 100
  56	 108
  56	 121
  56	 136
  56	 137
  56	 171
  56	 174
  56	 182
  56	 183
  56	 193
  56	 196
  56	 206
  56	 208
  56	 214
  56	 223
  56	 229
  56	 231
  56	 237
  57	  68
  57	  76
  57	  79
  57	  89
  57	  91
  57	 101
  57	 105
  57	 117
  57	 122
  57	 124
  57	 141
  57	 155
  57	 180
  57	 182
  57	 183
  57	 186
  57	 212
  57	 216
  57	 227
  57	 231
  58	  61
  58	  89
  58	 113
  58	 136
  58	 163
  58	 170
  58	 177
  58	 188
  58	 237
  58	 238
  59	  99
  59	 107
  59	 112
  59	 129
  59	 131
  59	 157
  59	 161
  59	 174
  59	 179
  59	 180
  59	 190
  59	 203
  59	 206
  59	 215
  59	 225
  59	 226
  59	 241
  60	  74
  60	  88
  60	 101
  60	 102
  60	 121
  60	 130
  60	 138
  60	 151
  60	 163
  60	 167
  60	 171
  60	 193
  60	 204
  60	 214
  60	 219
  60	 221
  60	 228
  60	 233
  60	 245
  61	  78
  61	  81
  61	  88
  61	  97
  61	 123
  61	 124
  61	 130
  61	 136
  61	 147
  61	 148
  61	 150
  61	 182
  61	 187
  61	 206
  61	 216
  61	 230
  61	 231
  61	 237
  61	 247
  62	  65
  62	  70
  62	  84
  62	  86
  62	  88
  62	  94
  62	 103
  62	 116
  62	 117
  62	 121
  62	 124
  62	 136
  62	 141
  62	 150
  62	 151
  62	 170
  62	 192
  62	 200
  62	 206
  62	 215
  62	 243
  63	  66
  63	  76
  63	  77
  63	  95
  63	 104
  63	 131
  63	 135
  63	 151
  63	 164
  63	 172
  63	 185
  63	 197
  63	 200
  63	 215
  63	 218
  63	 227
  63	 229
  63	 244
  64	  80
  64	  97
  64	  98
  64	 121
  64	 138
  64	 140
  64	 141
  64	 152
  64	 156
  64	 163
  64	 178
  64	 181
  64	 217
  64	 243
  65	  66
  65	  85
  65	  97
  65	 109
  65	 117
  65	 139
  65	 149
  65	 150
  65	 168
  65	 170
  65	 172
  65	 176
  65	 180
  65	 192
  65	 206
  65	 207
  65	 218
  65	 219
  65	 222
  65	 223
  65	 238
  66	  72
  66	  83
  66	 108
  66	 117
  66	 136
  66	 144
  66	 147
  66	 148
  66	 166
  66	 175
  66	 186
  66	 198
  66	 199
  66	 205
  66	 239
  66	 242
  67	  96
  67	 123
  67	 133
  67	 141
  67	 166
  67	 178
  67	 192
  67	 200
  67	 204
  67	 212
  67	 220
  67	 222
  67	 236
  67	 240
  68	  75
  68	  85
  68	  89
  68	 137
  68	 141
  68	 148
  68	 150
  68	 156
  68	 176
  68	 184
  68	 187
  68	 191
  68	 204
  68	 209
  68	 234
  68	 240
  68	 247
  69	 115
  69	 133
  69	 144
  69	 156
  69	 161
  69	 169
  69	 170
  69	 218
  69	 225
  69	 232
  69	 238
  69	 241
  69	 242
  69	 248
  70	  71
  70	  76
  70	  85
  70	 101
  70	 129
  70	 132
  70	 135
  70	 152
  70	 180
  70	 192
  70	 193
  70	 194
  70	 210
  70	 213
  70	 217
  70	 221
  70	 223
  70	 234
  70	 239
  70	 245
  70	 246
  71	  90
  71	 133
  71	 149
  71	 157
  71	 158
  71	 189
  71	 211
  71	 227
  71	 230
  71	 232
  71	 241
  71	 244
  72	  96
  72	  98
  72	 100
  72	 101
  72	 121
  72	 131
  72	 135
  72	 136
  72	 145
  72	 147
  72	 152
  72	 167
  72	 171
  72	 173
  72	 188
  72	 192
  72	 206
  72	 216
  73	  75
  73	  78
  73	  86
  73	  92
  73	 100
  73	 114
  73	 118
  73	 121
  73	 132
  73	 144
  73	 157
  73	 163
  73	 167
  73	 169
  73	 192
  73	 198
  73	 227
  73	 240
  74	  93
  74	 121
  74	 125
  74	 127
  74	 135
  74	 146
  74	 166
  74	 171
  74	 174
  74	 186
  74	 192
  74	 218
  74	 228
  74	 232
  74	 244
  74	 247
  75	  90
  75	 117
  75	 121
  75	 122
  75	 130
  75	 143
  75	 147
  75	 151
  75	 153
  75	 167
  75	 187
  75	 191
  75	 222
  76	  79
  76	  88
  76	 104
  76	 111
  76	 121
  76	 125
  76	 160
  76	 165
  76	 184
  76	 186
  76	 196
  76	 210
  76	 217
  76	 223
  76	 231
  76	 236
  76	 241
  76	 244
  77	  82
  77	  86
  77	  88
  77	  89
  77	 101
  77	 106
  77	 134
  77	 140
  77	 145
  77	 156
  77	 181
  77	 188
  77	 215
  77	 243
  77	 248
  78	  85
  78	 121
  78	 124
  78	 146
  78	 154
  78	 174
  78	 189
  78	 203
  78	 204
  78	 206
  78	 242
  78	 243
  78	 245
  78	 246
  79	  82
  79	  90
  79	  91
  79	  99
  79	 102
  79	 104
  79	 107
  79	 108
  79	 110
  79	 117
  79	 132
  79	 137
  79	 138
  79	 139
  79	 149
  79	 153
  79	 158
  79	 202
  79	 205
  79	 206
  79	 226
  79	 239
  79	 247
  80	  83
  80	  93
  80	  94
  80	 102
  80	 108
  80	 120
  80	 149
  80	 152
  80	 157
  80	 158
  80	 164
  80	 190
  80	 212
  80	 217
  80	 237
  80	 243
  81	  83
  81	  88
  81	  93
  81	  97
  81	 112
  81	 123
  81	 128
  81	 135
  81	 157
  81	 168
  81	 170
  81	 191
  81	 210
  81	 211
  81	 236
  81	 238
  82	  87
  82	  90
  82	 100
  82	 122
  82	 124
  82	 130
  82	 158
  82	 159
  82	 163
  82	 164
  82	 170
  82	 185
  82	 196
  82	 197
  82	 218
  82	 225
  82	 242
  83	  92
  83	  93
  83	 104
  83	 111
  83	 114
  83	 128
  83	 134
  83	 137
  83	 140
  83	 141
  83	 148
  83	 155
  83	 160
  83	 162
  83	 166
  83	 167
  83	 170
  83	 177
  83	 186
  83	 202
  83	 210
  83	 212
  83	 217
  83	 221
  83	 224
  83	 231
  83	 239
  84	  97
  84	  98
  84	  99
  84	 106
  84	 116
  84	 139
  84	 144
  84	 162
  84	 185
  84	 205
  84	 234
  85	  86
  85	 121
  85	 170
  85	 174
  85	 187
  85	 189
  85	 215
  85	 218
  85	 219
  85	 236
  86	 123
  86	 134
  86	 136
  86	 145
  86	 152
  86	 158
  86	 166
  86	 167
  86	 173
  86	 178
  86	 179
  86	 187
  86	 197
  86	 199
  86	 221
  86	 226
  86	 230
  86	 232
  86	 241
  86	 247
  87	  94
  87	  98
  87	 106
  87	 140
  87	 181
  87	 185
  87	 195
  87	 201
  87	 222
  87	 231
  88	  98
  88	 102
  88	 122
  88	 127
  88	 129
  88	 131
  88	 134
  88	 143
  88	 148
  88	 160
  88	 174
  88	 193
  88	 202
  88	 209
  88	 216
  88	 233
  89	 106
  89	 107
  89	 119
  89	 125
  89	 137
  89	 138
  89	 139
  89	 149
  89	 158
  89	 166
  89	 167
  89	 173
  89	 174
  89	 177
  89	 189
  89	 201
  89	 208
  89	 210
  89	 224
  89	 231
  89	 245
  90	 102
  90	 105
  90	 115
  90	 126
  90	 127
  90	 138
  90	 148
  90	 175
  90	 178
  90	 188
  90	 199
  90	 200
  90	 212
  90	 215
  90	 242
  91	  99
  91	 107
  91	 114
  91	 120
  91	 123
  91	 127
  91	 129
  91	 133
  91	 160
  91	 167
  91	 170
  91	 176
  91	 181
  91	 191
  91	 196
  91	 206
  91	 214
  91	 215
  91	 242
  92	 101
  92	 106
  92	 111
  92	 117
  92	 124
  92	 134
  92	 145
  92	 148
  92	 165
  92	 167
  92	 173
  92	 182
  92	 186
  92	 198
  92	 235
  92	 240
  93	 110
  93	 126
  93	 130
  93	 134
  93	 138
  93	 149
  93	 153
  93	 162
  93	 169
  93	 182
  93	 208
  93	 218
  93	 219
  93	 229
  93	 231
  93	 243
  94	 104
  94	 105
  94	 107
  94	 147
  94	 156
  94	 200
  94	 202
  94	 206
  94	 225
  94	 231
  94	 239
  94	 240
  94	 242
  94	 245
  95	 121
  95	 123
  95	 127
  95	 128
  95	 129
  95	 172
  95	 177
  95	 178
  95	 182
  95	 187
  95	 190
  95	 218
  95	 226
  95	 229
  95	 230
  95	 246
  96	 106
  96	 115
  96	 117
  96	 131
  96	 136
  96	 139
  96	 147
  96	 156
  96	 170
  96	 176
  96	 182
  96	 187
  96	 190
  96	 196
  96	 198
  96	 209
  96	 212
  96	 217
  96	 218
  96	 237
  97	 105
  97	 108
  97	 117
  97	 123
  97	 137
  97	 140
  97	 143
  97	 150
  97	 157
  97	 161
  97	 166
  97	 184
  97	 185
  97	 186
  97	 198
  97	 209
  97	 213
  97	 224
  97	 229
  97	 242
  98	 111
  98	 125
  98	 144
  98	 152
  98	 159
  98	 162
  98	 169
  98	 184
  98	 191
  98	 200
  98	 207
  98	 216
  98	 231
  98	 233
  99	 108
  99	 124
  99	 139
  99	 140
  99	 165
  99	 176
  99	 180
  99	 184
  99	 187
  99	 190
  99	 192
  99	 194
  99	 246
 100	 110
 100	 125
 100	 126
 100	 128
 100	 136
 100	 149
 100	 168
 100	 170
 100	 173
 100	 174
 100	 187
 100	 197
 100	 203
 100	 205
 100	 215
 100	 221
 100	 222
 100	 223
 100	 241
 100	 243
 101	 106
 101	 114
 101	 115
 101	 123
 101	 130
 101	 145
 101	 146
 101	 150
 101	 177
 101	 189
 101	 192
 101	 215
 101	 234
 102	 116
 102	 124
 102	 129
 102	 135
 102	 136
 102	 141
 102	 142
 102	 144
 102	 169
 102	 170
 102	 185
 102	 196
 102	 197
 102	 211
 102	 218
 102	 227
 102	 230
 102	 233
 102	 235
 103	 115
 103	 123
 103	 130
 103	 136
 103	 140
 103	 142
 103	 150
 103	 171
 103	 174
 103	 181
 103	 190
 103	 192
 103	 195
 103	 196
 103	 219
 103	 221
 103	 228
 103	 234
 104	 118
 104	 124
 104	 131
 104	 140
 104	 150
 104	 156
 104	 167
 104	 173
 104	 186
 104	 194
 104	 200
 104	 201
 104	 205
 104	 209
 104	 210
 104	 211
 104	 230
 104	 240
 104	 246
 105	 106
 105	 110
 105	 112
 105	 113
 105	 116
 105	 134
 105	 135
 105	 154
 105	 165
 105	 170
 105	 173
 105	 180
 105	 195
 105	 197
 105	 227
 105	 233
 106	 115
 106	 132
 106	 133
 106	 175
 106	 197
 106	 208
 106	 210
 106	 215
 106	 219
 106	 220
 106	 230
 106	 232
 106	 246
 107	 110
 107	 123
 107	 126
 107	 142
 107	 169
 107	 191
 107	 194
 107	 195
 107	 199
 107	 201
 107	 203
 107	 215
 107	 216
 107	 222
 107	 225
 107	 226
 107	 230
 107	 243
 107	 247
 108	 151
 108	 155
 108	 159
 108	 165
 108	 170
 108	 189
 108	 210
 108	 214
 108	 225
 108	 226
 108	 233
 108	 239
 108	 243
 109	 110
 109	 117
 109	 152
 109	 165
 109	 168
 109	 171
 109	 184
 109	 186
 109	 197
 109	 203
 109	 204
 109	 205
 109	 233
 109	 235
 110	 114
 110	 145
 110	 146
 110	 147
 110	 149
 110	 164
 110	 200
 110	 213
 110	 216
 110	 222
 110	 228
 110	 230
 110	 231
 110	 233
 110	 247
 111	 117
 111	 125
 111	 136
 111	 138
 111	 154
 111	 165
 111	 166
 111	 179
 111	 194
 111	 200
 111	 219
 111	 240
 112	 127
 112	 132
 112	 138
 112	 140
 112	 143
 112	 163
 112	 167
 112	 170
 112	 179
 112	 183
 112	 186
 112	 202
 112	 246
 113	 122
 113	 167
 113	 171
 113	 188
 113	 190
 113	 191
 113	 192
 113	 215
 113	 223
 113	 230
 113	 236
 113	 244
 114	 157
 114	 160
 114	 166
 114	 195
 114	 207
 114	 226
 114	 233
 114	 234
 115	 116
 115	 143
 115	 160
 115	 162
 115	 173
 115	 174
 115	 178
 115	 187
 115	 189
 115	 192
 115	 218
 115	 233
 115	 248
 116	 125
 116	 126
 116	 127
 116	 135
 116	 149
 116	 150
 116	 158
 116	 167
 116	 173
 116	 181
 116	 197
 116	 208
 116	 213
 116	 217
 116	 218
 116	 230
 116	 233
 117	 132
 117	 136
 117	 139
 117	 165
 117	 199
 117	 203
 117	 210
 117	 214
 117	 228
 117	 231
 118	 123
 118	 136
 118	 144
 118	 145
 118	 152
 118	 155
 118	 157
 118	 196
 118	 198
 118	 220
 118	 221
 118	 224
 118	 235
 118	 242
 118	 246
 118	 248
 119	 126
 119	 128
 119	 132
 119	 137
 119	 160
 119	 172
 119	 176
 119	 184
 119	 202
 119	 204
 119	 209
 119	 214
 119	 217
 119	 237
 119	 238
 120	 139
 120	 144
 120	 148
 120	 161
 120	 176
 120	 185
 120	 194
 120	 208
 120	 240
 120	 245
 120	 247
 121	 131
 121	 138
 121	 140
 121	 146
 121	 162
 121	 191
 121	 199
 121	 209
 121	 217
 121	 226
 121	 235
 122	 123
 122	 127
 122	 142
 122	 155
 122	 159
 122	 163
 122	 184
 122	 191
 122	 202
 122	 207
 122	 215
 122	 223
 122	 237
 122	 239
 123	 128
 123	 132
 123	 136
 123	 146
 123	 147
 123	 164
 123	 178
 123	 180
 123	 181
 123	 184
 123	 188
 123	 207
 123	 216
 123	 224
 123	 226
 123	 244
 124	 131
 124	 134
 124	 163
 124	 165
 124	 188
 124	 203
 124	 205
 124	 208
 124	 210
 124	 228
 124	 240
 124	 242
 125	 129
 125	 155
 125	 158
 125	 162
 125	 164
 125	 169
 125	 172
 125	 182
 125	 194
 125	 197
 125	 211
 125	 234
 125	 236
 125	 237
 126	 146
 126	 147
 126	 154
 126	 166
 126	 184
 126	 209
 126	 213
 126	 217
 126	 220
 126	 221
 126	 222
 127	 132
 127	 149
 127	 150
 127	 157
 127	 158
 127	 176
 127	 180
 127	 184
 127	 234
 127	 240
 127	 245
 128	 142
 128	 146
 128	 153
 128	 165
 128	 169
 128	 187
 128	 202
 128	 210
 128	 216
 128	 221
 128	 229
 128	 241
 128	 243
 129	 130
 129	 131
 129	 140
 129	 148
 129	 154
 129	 156
 129	 157
 129	 162
 129	 163
 129	 164
 129	 168
 129	 169
 129	 174
 129	 177
 129	 203
 129	 218
 129	 222
 130	 180
 130	 181
 130	 187
 130	 194
 130	 207
 130	 230
 130	 234
 130	 238
 130	 245
 131	 163
 131	 171
 131	 176
 131	 180
 131	 182
 131	 188
 131	 194
 131	 197
 131	 209
 131	 210
 131	 214
 131	 219
 131	 221
 131	 231
 131	 234
 131	 245
 132	 138
 132	 147
 132	 163
 132	 166
 132	 179
 132	 183
 132	 184
 132	 190
 132	 205
 132	 220
 132	 243
 133	 142
 133	 143
 133	 178
 133	 196
 133	 212
 133	 214
 133	 216
 133	 218
 134	 135
 134	 144
 134	 145
 134	 164
 134	 173
 134	 224
 134	 233
 135	 156
 135	 160
 135	 165
 135	 170
 135	 196
 135	 197
 135	 199
 135	 201
 135	 209
 135	 215
 135	 224
 135	 229
 135	 235
 135	 244
 135	 245
 136	 158
 136	 161
 136	 164
 136	 167
 136	 169
 136	 176
 136	 219
 136	 224
 136	 227
 136	 247
 137	 138
 137	 141
 137	 153
 137	 161
 137	 173
 137	 204
 137	 206
 137	 214
 137	 217
 137	 221
 137	 222
 137	 223
 137	 248
 138	 145
 138	 159
 138	 170
 138	 188
 138	 206
 138	 218
 138	 221
 138	 244
 138	 245
 138	 246
 139	 147
 139	 155
 139	 171
 139	 172
 139	 176
 139	 185
 139	 203
 139	 205
 139	 211
 139	 226
 139	 238
 139	 248
 140	 152
 140	 154
 140	 155
 140	 162
 140	 164
 140	 170
 140	 177
 140	 179
 140	 181
 140	 213
 140	 238
 140	 244
 141	 142
 141	 144
 141	 179
 141	 182
 141	 183
 141	 185
 141	 247
 142	 144
 142	 161
 142	 167
 142	 169
 142	 181
 142	 184
 142	 185
 142	 202
 142	 210
 142	 218
 142	 220
 142	 223
 142	 237
 142	 243
 143	 145
 143	 146
 143	 168
 143	 171
 143	 180
 143	 198
 143	 214
 143	 247
 144	 165
 144	 168
 144	 177
 144	 182
 144	 185
 144	 208
 144	 216
 144	 219
 144	 239
 145	 147
 145	 159
 145	 162
 145	 176
 145	 177
 145	 184
 145	 192
 145	 214
 145	 219
 145	 224
 145	 228
 145	 229
 145	 235
 146	 155
 146	 173
 146	 176
 146	 194
 146	 202
 146	 206
 146	 216
 146	 218
 146	 223
 146	 228
 146	 234
 146	 240
 146	 248
 147	 149
 147	 150
 147	 176
 147	 180
 147	 182
 147	 191
 147	 198
 147	 213
 147	 217
 147	 225
 147	 229
 147	 247
 148	 159
 148	 175
 148	 183
 148	 188
 148	 202
 148	 239
 148	 241
 148	 246
 149	 150
 149	 157
 149	 161
 149	 179
 149	 181
 149	 184
 149	 187
 149	 199
 149	 223
 149	 240
 149	 245
 150	 153
 150	 156
 150	 160
 150	 165
 150	 170
 150	 174
 150	 176
 150	 178
 150	 180
 150	 182
 150	 196
 150	 215
 150	 216
 150	 221
 150	 223
 151	 153
 151	 163
 151	 170
 151	 171
 151	 191
 151	 208
 151	 213
 152	 171
 152	 192
 152	 195
 152	 196
 152	 198
 152	 201
 152	 214
 152	 219
 152	 244
 152	 247
 153	 158
 153	 159
 153	 170
 153	 178
 153	 181
 153	 194
 153	 203
 153	 209
 153	 212
 153	 240
 153	 244
 154	 158
 154	 165
 154	 169
 154	 175
 154	 176
 154	 189
 154	 215
 154	 217
 154	 221
 154	 225
 154	 231
 154	 234
 154	 245
 154	 247
 155	 156
 155	 176
 155	 177
 155	 178
 155	 183
 155	 186
 155	 196
 155	 218
 155	 229
 155	 235
 155	 237
 155	 238
 156	 157
 156	 172
 156	 173
 156	 188
 156	 192
 156	 209
 156	 211
 156	 216
 157	 158
 157	 165
 157	 176
 157	 193
 157	 194
 157	 197
 157	 204
 157	 205
 157	 206
 157	 207
 157	 218
 157	 232
 157	 233
 157	 243
 157	 244
 157	 245
 158	 162
 158	 174
 158	 181
 158	 194
 158	 199
 158	 210
 158	 219
 158	 220
 158	 221
 158	 222
 159	 167
 159	 169
 159	 172
 159	 174
 159	 178
 159	 180
 159	 214
 159	 217
 159	 220
 159	 225
 159	 236
 159	 243
 160	 167
 160	 177
 160	 184
 160	 191
 160	 194
 160	 195
 160	 205
 160	 214
 160	 219
 160	 221
 160	 230
 160	 231
 161	 176
 161	 177
 161	 180
 161	 200
 161	 203
 161	 230
 161	 236
 161	 238
 161	 246
 161	 247
 162	 184
 162	 185
 162	 197
 162	 202
 162	 203
 162	 208
 162	 230
 162	 236
 162	 238
 162	 239
 162	 240
 162	 243
 163	 176
 163	 199
 163	 208
 163	 213
 163	 214
 163	 233
 163	 240
 163	 248
 164	 172
 164	 190
 164	 194
 164	 197
 164	 204
 164	 210
 164	 211
 164	 225
 164	 235
 165	 172
 165	 180
 165	 186
 165	 193
 165	 210
 166	 174
 166	 182
 166	 190
 166	 197
 166	 237
 166	 243
 166	 244
 167	 172
 167	 186
 167	 206
 167	 229
 167	 230
 167	 232
 167	 245
 168	 174
 168	 180
 168	 183
 168	 187
 168	 202
 168	 204
 168	 205
 168	 209
 168	 221
 168	 229
 168	 244
 169	 180
 169	 197
 169	 202
 169	 204
 169	 207
 169	 211
 169	 213
 169	 232
 169	 234
 170	 179
 170	 185
 170	 189
 170	 208
 170	 214
 170	 230
 171	 175
 171	 184
 171	 195
 171	 210
 171	 218
 171	 223
 171	 229
 171	 237
 171	 245
 172	 211
 172	 228
 172	 245
 173	 174
 173	 182
 173	 193
 173	 198
 173	 205
 173	 214
 173	 218
 173	 224
 173	 234
 173	 242
 173	 248
 174	 182
 174	 188
 174	 191
 174	 197
 174	 201
 174	 203
 174	 215
 174	 219
 175	 189
 175	 195
 175	 201
 175	 210
 175	 212
 175	 233
 175	 239
 175	 248
 176	 194
 176	 196
 176	 199
 176	 202
 176	 205
 176	 207
 176	 220
 176	 224
 176	 228
 176	 241
 176	 243
 177	 178
 177	 186
 177	 195
 177	 207
 177	 215
 177	 223
 177	 235
 177	 246
 178	 180
 178	 181
 178	 197
 178	 200
 178	 207
 178	 208
 178	 217
 178	 218
 178	 242
 179	 182
 179	 185
 179	 190
 179	 192
 179	 207
 179	 232
 180	 181
 180	 182
 180	 227
 180	 230
 180	 237
 180	 247
 181	 192
 181	 214
 181	 242
 182	 185
 182	 186
 182	 208
 182	 214
 182	 216
 182	 225
 182	 244
 183	 193
 183	 195
 183	 216
 183	 237
 183	 238
 183	 244
 184	 191
 184	 220
 184	 223
 184	 226
 184	 233
 184	 234
 184	 238
 185	 200
 185	 203
 185	 214
 185	 217
 185	 218
 185	 225
 185	 227
 186	 211
 186	 220
 186	 221
 186	 225
 186	 231
 187	 192
 187	 199
 187	 206
 187	 215
 187	 230
 187	 243
 187	 248
 188	 200
 188	 202
 188	 204
 188	 222
 188	 235
 188	 248
 189	 190
 189	 214
 189	 217
 189	 229
 189	 248
 190	 192
 190	 195
 190	 199
 190	 205
 190	 209
 190	 219
 190	 220
 191	 192
 191	 211
 191	 218
 191	 240
 192	 195
 192	 200
 192	 212
 192	 228
 192	 238
 192	 240
 193	 206
 193	 212
 193	 219
 193	 230
 194	 222
 194	 238
 195	 199
 195	 202
 195	 216
 195	 224
 195	 226
 195	 230
 195	 242
 196	 209
 196	 211
 196	 217
 196	 224
 196	 231
 196	 233
 197	 209
 197	 215
 197	 233
 197	 238
 198	 203
 198	 206
 198	 209
 198	 214
 198	 225
 198	 241
 198	 248
 199	 205
 199	 222
 199	 234
 200	 204
 200	 215
 200	 226
 200	 233
 200	 238
 200	 243
 201	 208
 201	 210
 201	 230
 201	 235
 201	 239
 201	 243
 201	 247
 201	 248
 202	 209
 202	 212
 203	 210
 203	 211
 203	 224
 203	 225
 203	 234
 203	 239
 203	 247
 203	 248
 204	 215
 204	 221
 204	 222
 204	 234
 204	 242
 204	 243
 205	 207
 205	 219
 205	 235
 206	 216
 206	 219
 206	 236
 206	 239
 206	 242
 207	 224
 207	 242
 208	 218
 208	 219
 208	 225
 208	 227
 208	 238
 208	 243
 209	 211
 209	 212
 209	 229
 209	 230
 209	 234
 209	 235
 209	 236
 210	 220
 210	 228
 210	 243
 211	 223
 211	 233
 211	 237
 212	 216
 212	 227
 213	 225
 214	 223
 214	 232
 214	 241
 215	 219
 216	 220
 216	 221
 216	 231
 216	 239
 217	 227
 217	 248
 218	 219
 218	 220
 218	 232
 219	 222
 219	 226
 219	 229
 219	 236
 220	 225
 220	 233
 220	 235
 220	 244
 220	 245
 221	 225
 221	 229
 221	 230
 221	 233
 221	 246
 222	 225
 222	 228
 222	 247
 223	 237
 223	 245
 224	 226
 224	 228
 224	 229
 224	 234
 225	 228
 225	 230
 225	 239
 225	 240
 226	 229
 226	 238
 227	 232
 227	 248
 228	 233
 229	 231
 229	 232
 231	 233
 231	 245
 231	 246
 232	 238
 232	 242
 233	 243
 233	 246
 234	 237
 234	 238
 235	 236
 237	 239
 237	 242
 239	 243
 239	 248
 241	 244
 242	 247
;
